# 
# This is the geometry file that corresponds to the current relaxation step.
# If you do not want this file to be written, set the "write_restart_geometry" flag to .false.
#  aims_uuid : 327130DF-52F9-4EA0-A1AE-322EF1D764B5                                                                        
# 
lattice_vector      8.102000000000      0.000000000000      0.000000000000
lattice_vector      0.000000000000      5.940400000000      0.000000000000
lattice_vector     -4.892545924327      0.000000000000      7.128555981288
atom      -0.929112581397      0.115305515081      2.352001512693 C
atom       0.087566657509      3.085505515481      4.776554468601 C
atom       4.138566657238      5.825094484752      4.776554468672 C
atom       3.121887418188      2.854894484679      2.352001512687 C
atom      -0.163974100585      0.973503734242      1.591365633527 C
atom      -0.677571823488      3.943703734553      5.537190347799 C
atom       3.373428176429      4.966896265536      5.537190347834 C
atom       3.887025899150      1.996696265688      1.591365633419 C
atom       0.211928520880      0.631336930707      0.267561552949 C
atom      -1.053474445260      3.601536930869      6.860994428269 C
atom       2.997525554858      5.309063069163      6.860994428325 C
atom       4.262928520848      2.338863069349      0.267561552898 C
atom      -3.899933179058      1.494876645546      6.586176959925 C
atom       3.058387254295      4.465076645407      0.542379021341 C
atom       7.109387254708      4.445523354379      0.542379021332 C
atom       0.151066821129      1.475323354689      6.586176959837 C
atom      -3.544453639587      1.128972941910      5.304829683853 C
atom       2.702907714806      4.099172941739      1.823726297466 C
atom       6.753907715321      4.811427058001      1.823726297467 C
atom       0.506546360664      1.841227058285      5.304829683738 C
atom      -1.213957629428      0.401992517799      3.364912718394 H
atom       0.372411705585      3.372192518260      3.763643262973 H
atom       4.423411705330      5.538407482092      3.763643263028 H
atom       2.837042370151      2.568207481857      3.364912718375 H
atom       0.157144144795      1.935852210886      1.991089108016 H
atom      -0.998690068866      4.906052211201      5.137466873387 H
atom       3.052309931102      4.004547788870      5.137466873394 H
atom       4.208144144612      1.034347789080      1.991089107920 H
atom      -3.578811443346      2.452264774852      6.996519099571 H
atom       2.737265518431      5.422464774682      0.132036881721 H
atom       6.788265518933      3.488135225110      0.132036881626 H
atom       0.472188556902      0.517935225377      6.996519099441 H
atom      -2.933264381219      1.801096666402      4.700047137490 H
atom       2.091718456419      4.771296666144      2.428508843909 H
atom       6.142718456997      4.139303333552      2.428508843900 H
atom       1.117735619068      1.169103333780      4.700047137405 H
# 
# What follows is the current estimated Hessian matrix constructed by the BFGS algorithm.
# This is NOT the true Hessian matrix of the system.
# If you do not want this information here, switch it off using the "hessian_to_restart_geometry" keyword.
# 
trust_radius             0.2000000030
hessian_file
